176310
[0, 1, 2, 12, 13, 14, 4, 5, 6, 7, 8, 9, 19, 18, 17, 16, 15, 135, 166, 165, 164, 134, 133, 161, 10, 11, 3, 167, 168, 169, 170, 171, 186, 187, 188, 189, 136, 190, 191, 192, 193, 194, 195, 198, 206, 205, 204, 203, 202, 201, 363, 348, 200, 199, 197, 196, 185, 179, 181, 177, 180, 178, 176, 175, 174, 173, 172, 183, 182, 343, 342, 341, 340, 338, 339, 184, 337, 332, 331, 330, 530, 329, 328, 327, 326, 334, 333, 335, 336, 324, 325, 538, 537, 524, 525, 536, 535, 533, 531, 529, 528, 527, 526, 521, 520, 519, 522, 518, 517, 516, 515, 523, 758, 760, 761, 762, 763, 764, 765, 766, 768, 776, 775, 774, 773, 772, 771, 770, 769, 950, 953, 954, 955, 962, 963, 956, 957, 958, 959, 952, 967, 966, 965, 1065, 1066, 1075, 1076, 1077, 1078, 1079, 1080, 1081, 1219, 1220, 1218, 1221, 1222, 1223, 1224, 1225, 1226, 1203, 1204, 1205, 1206, 1207, 1202, 1201, 1406, 1401, 1400, 1393, 1394, 1492, 1395, 1396, 1397, 1398, 1399, 1493, 1494, 1490, 1489, 1488, 1487, 1486, 1482, 1485, 1484, 1483, 1481, 1467, 1468, 1469, 1470, 1471, 1472, 1479, 1478, 1477, 1474, 1473, 1475, 1476, 1495, 1496, 1497, 1498, 1526, 1525, 1524, 1527, 1523, 1522, 1521, 1520, 1519, 1516, 1517, 1518, 1515, 1512, 1514, 1513, 1679, 1700, 1699, 1698, 1697, 1696, 1695, 1694, 1693, 1692, 1691, 1690, 1689, 1688, 1678, 1687, 1724, 1723, 1686, 1685, 1684, 1720, 1683, 1682, 1674, 1675, 1676, 1677, 1250, 1249, 1248, 1247, 1240, 1246, 1251, 1245, 1244, 1243, 1242, 1241, 1255, 1254, 1253, 1252, 1239, 1233, 1232, 1231, 1230, 1228, 1229, 1227, 1431, 1432, 1433, 1436, 1437, 1438, 1439, 1440, 1441, 1442, 1238, 1237, 1236, 1235, 1234, 1435, 1429, 1428, 1419, 1420, 1421, 1422, 1423, 1424, 1425, 1426, 1540, 1539, 1538, 1537, 1536, 1535, 1534, 1533, 1531, 1532, 1528, 1506, 1505, 1504, 1503, 1626, 1649, 1648, 1647, 1646, 1645, 1644, 1643, 1642, 1640, 1641, 1681, 1706, 1705, 2436, 1704, 1703, 1702, 1701, 1680, 1511, 1510, 1509, 1508, 1507, 1637, 1638, 1639, 1653, 1652, 1651, 1657, 1656, 1655, 1654, 1669, 1668, 1667, 1666, 1665, 1664, 1663, 1662, 1660, 1661, 1650, 1633, 1634, 1632, 1635, 1636, 1658, 1659, 1631, 1630, 1620, 1619, 1618, 1617, 1616, 1615, 1614, 1613, 1612, 1611, 1610, 2328, 2330, 2331, 2335, 2334, 2332, 2333, 2369, 2368, 2367, 2366, 2365, 2364, 2363, 2372, 2371, 2370, 2377, 2378, 2379, 2336, 2337, 2339, 2340, 2380, 2381, 2382, 2383, 2384, 2385, 2386, 2387, 2403, 2405, 2406, 2408, 2409, 2411, 2565, 2584, 2585, 2605, 2606, 2586, 2567, 2566, 2547, 2524, 2526, 2523, 2407, 2404, 2402, 2373, 2374, 2375, 2376, 2388, 2390, 2391, 2392, 2393, 2394, 2395, 2410, 2412, 2604, 2607, 2608, 2588, 2569, 2572, 2570, 2589, 2590, 2610, 2611, 2591, 2592, 2593, 2613, 2614, 2594, 2575, 2574, 2573, 2554, 2555, 2556, 2534, 2535, 2557, 2558, 2577, 2576, 2595, 2615, 2616, 2596, 2597, 2578, 2559, 2536, 2537, 2538, 2561, 2560, 2579, 2582, 2580, 2581, 2626, 2563, 2562, 2539, 2540, 2541, 2542, 2543, 2544, 2545, 2522, 2513, 2492, 2491, 2512, 2511, 2510, 2509, 2488, 2487, 2486, 2485, 2506, 2507, 2508, 2489, 2490, 2473, 2493, 2514, 2515, 2494, 2474, 2667, 2668, 2669, 2670, 2671, 2672, 2635, 2673, 2674, 2675, 2676, 2677, 2678, 2679, 2680, 2690, 2689, 2702, 2703, 2847, 2858, 2857, 2879, 2880, 2902, 2903, 2925, 2924, 2945, 2944, 2943, 2964, 2963, 2962, 2941, 2942, 2921, 2899, 2898, 2920, 2919, 2940, 2939, 2960, 2961, 2959, 2938, 2917, 2895, 2900, 2896, 2918, 2897, 2875, 2874, 2852, 2851, 2846, 2850, 2872, 2871, 2849, 2870, 2869, 2845, 2692, 2691, 2693, 2694, 2695, 2682, 2681, 2683, 2696, 2697, 2684, 2685, 2698, 2699, 2700, 2687, 2688, 2701, 2856, 2855, 2877, 2878, 2901, 2923, 2922, 2979, 2876, 2854, 2853, 2873, 2894, 2916, 3033, 2958, 2624, 2623, 2603, 2602, 2583, 2564, 2601, 2621, 2620, 2600, 2599, 2598, 2618, 2617, 2619, 2622, 2521, 2520, 2505, 2484, 2483, 2482, 2503, 2502, 2501, 2480, 2481, 2479, 2478, 2477, 2476, 2475, 2496, 2497, 2498, 2499, 2500, 2471, 2470, 2469, 2449, 2450, 2429, 2430, 2362, 2431, 2432, 2433, 2434, 2455, 2456, 2457, 2435, 2424, 2423, 2422, 2421, 2420, 2419, 2418, 2417, 2416, 2415, 2426, 2425, 2398, 2400, 2446, 2447, 2448, 2427, 2428, 2451, 2452, 2453, 2454, 2458, 2459, 2460, 2461, 2462, 2441, 2442, 2443, 2464, 2463, 2465, 2444, 2466, 2467, 2445, 1795, 1794, 1811, 1793, 1792, 1791, 1809, 1810, 2125, 2149, 2150, 2151, 2152, 2153, 2154, 2155, 2156, 2157, 2158, 2159, 2160, 2161, 2162, 2163, 2176, 2177, 2201, 2202, 2192, 2191, 2189, 2178, 2179, 2136, 2180, 2181, 2182, 2183, 2186, 2190, 2198, 2208, 2209, 2199, 2200, 2210, 2212, 2213, 2656, 2655, 2654, 2657, 2658, 2653, 2652, 2659, 2660, 2651, 2650, 2661, 2662, 2649, 2648, 2663, 2664, 2665, 2646, 2647, 2645, 2644, 2643, 2642, 2641, 2640, 2638, 2637, 2639, 2636, 2631, 2630, 2629, 2632, 2633, 2634, 2627, 2628, 2165, 2164, 2166, 2167, 2168, 2169, 2170, 2171, 2172, 2173, 2174, 2175, 2705, 2706, 2707, 2708, 2714, 2716, 2717, 2719, 2721, 2720, 2718, 2722, 2723, 2725, 2724, 2726, 2728, 2729, 2727, 2865, 2864, 2863, 2862, 2861, 2886, 2909, 2910, 2932, 2931, 2930, 2908, 2907, 2929, 2950, 2949, 2970, 2971, 2972, 2951, 2952, 2953, 2954, 2933, 2911, 2912, 2889, 2890, 2891, 2866, 2867, 2892, 2915, 2914, 2913, 2935, 2934, 2955, 2956, 2977, 2976, 2975, 2974, 2973, 2928, 2906, 2905, 2882, 2881, 2904, 2926, 2927, 2948, 2947, 2946, 2967, 2968, 2969, 2966, 2965, 2883, 2884, 2859, 2860, 2885, 2887, 2888, 2936, 2957, 2978, 2937, 2893, 2868, 2733, 2731, 2730, 2732, 2710, 2781, 2793, 2794, 2795, 2796, 2797, 2798, 2799, 2800, 2801, 2814, 2802, 2803, 2804, 2805, 2786, 2785, 2770, 2769, 2754, 2753, 2752, 2751, 2750, 2744, 2749, 2748, 2747, 2746, 2745, 2780, 2666, 2734, 2735, 2252, 2736, 2737, 2738, 2739, 2740, 2741, 2742, 2743, 2256, 2240, 2221, 2241, 2242, 2243, 2222, 2244, 2245, 2246, 2247, 2248, 2249, 2250, 2251, 2230, 2229, 2228, 2227, 2226, 2148, 2225, 2224, 2223, 2146, 2147, 2145, 2114, 2099, 2100, 2101, 2102, 2103, 2104, 2110, 2105, 2106, 2107, 2108, 2113, 2112, 2111, 2120, 2123, 2121, 2122, 2124, 2119, 2118, 2117, 2116, 2115, 2109, 2010, 2009, 2008, 2007, 2006, 2003, 1993, 1994, 1995, 1996, 1997, 1998, 1991, 1999, 2000, 2004, 2013, 2012, 2011, 2014, 2015, 2005, 2002, 2001, 1992, 1912, 1911, 1910, 1909, 1908, 1907, 1906, 1905, 1894, 1893, 1888, 1889, 1336, 1335, 1337, 1338, 1339, 1340, 1341, 1342, 1343, 1344, 1345, 1892, 1891, 1901, 1900, 1899, 1890, 1898, 1897, 1896, 1895, 1990, 1989, 1913, 1914, 1915, 1903, 1902, 1904, 1347, 1346, 1352, 1351, 1350, 1360, 1361, 1362, 1170, 1171, 1172, 1173, 1174, 1175, 1176, 1177, 1178, 1359, 1358, 1357, 1356, 1355, 1354, 1353, 1349, 1348, 1333, 1334, 1332, 1331, 1330, 1329, 1328, 1327, 1326, 1325, 1324, 1323, 1322, 1321, 1320, 1319, 1311, 1312, 1313, 1314, 1315, 1316, 1317, 1318, 1872, 1871, 1870, 1869, 1868, 1867, 1866, 1865, 1864, 1883, 1882, 1881, 1880, 1879, 1877, 1876, 1875, 1874, 1873, 1887, 1886, 1884, 1885, 1971, 1970, 1979, 1978, 1981, 1982, 1983, 1984, 1980, 1985, 1986, 1987, 1988, 2030, 2031, 2097, 2098, 2089, 2088, 2087, 2086, 2085, 2084, 2083, 2082, 2081, 2029, 2028, 2027, 1968, 1967, 1966, 1965, 1964, 1960, 1963, 1962, 1961, 2025, 2026, 2064, 2061, 2063, 2024, 2060, 2062, 2078, 2077, 2076, 2075, 2074, 2073, 2072, 2071, 2079, 2080, 2139, 2138, 2185, 2184, 2197, 2196, 2195, 2205, 2206, 2207, 2187, 2194, 2193, 2203, 2204, 2188, 2137, 2066, 2065, 2067, 2068, 2069, 2070, 1959, 1956, 1957, 1955, 1954, 1953, 1952, 1949, 1951, 1950, 1947, 1948, 1945, 1944, 1946, 1943, 1930, 1929, 1928, 1927, 1940, 1941, 1942, 1931, 1835, 1839, 1840, 1841, 1859, 1858, 1857, 1856, 1855, 1854, 1853, 1852, 1861, 1860, 1863, 1969, 1972, 1973, 1974, 1975, 1976, 1977, 1878, 1310, 1309, 1308, 1296, 1295, 1294, 1293, 1292, 1290, 1291, 1289, 1288, 1287, 1299, 1298, 1301, 1302, 1303, 1304, 1305, 1306, 1307, 1138, 1129, 1137, 1136, 1128, 1135, 1134, 1133, 1132, 1131, 1126, 1127, 1121, 1120, 1119, 1118, 1043, 891, 892, 893, 894, 895, 896, 897, 898, 890, 889, 888, 887, 886, 885, 884, 883, 882, 881, 880, 879, 1041, 1042, 1114, 1097, 1096, 1095, 1093, 1094, 1092, 1091, 1090, 1089, 1088, 1087, 1086, 1085, 1084, 1083, 1099, 1098, 1765, 1766, 1767, 1796, 1768, 1769, 1797, 1770, 1771, 1772, 1773, 1774, 1775, 1776, 1777, 1799, 1800, 1778, 1779, 1780, 1781, 1802, 1801, 1803, 1782, 1783, 1784, 1804, 1805, 1785, 1786, 1787, 1748, 1788, 1789, 1790, 1754, 1756, 1755, 1757, 1758, 1762, 1761, 1760, 1759, 1711, 1712, 1713, 2437, 2438, 2439, 2440, 1763, 2472, 2504, 2518, 2519, 2517, 2533, 2532, 2531, 2530, 2529, 2528, 2527, 2550, 2551, 2552, 2553, 2625, 2571, 2609, 2587, 2568, 2549, 2548, 2525, 2516, 2495, 2468, 2401, 2399, 2397, 2361, 2360, 2359, 2358, 2357, 2356, 2354, 2355, 2329, 1625, 1588, 1587, 1589, 1590, 1602, 1603, 1601, 1600, 1599, 1598, 1597, 1596, 1595, 1594, 1592, 1591, 1593, 1628, 1627, 1629, 1621, 1622, 1623, 1624, 2396, 1671, 1670, 1672, 1710, 1709, 1708, 1707, 1753, 1752, 1751, 1750, 1747, 1749, 1746, 1745, 1744, 1743, 1742, 1741, 1740, 1738, 1737, 1734, 1733, 1732, 1736, 1735, 1729, 1728, 1730, 1731, 1726, 1727, 1722, 1718, 1716, 1715, 1714, 1717, 1721, 1719, 1725, 1673, 1013, 1014, 1015, 1016, 1017, 1018, 1019, 1020, 1021, 1012, 849, 848, 847, 846, 845, 1010, 1011, 1009, 843, 842, 828, 829, 830, 831, 832, 833, 834, 835, 836, 837, 841, 840, 852, 857, 858, 859, 860, 861, 862, 863, 864, 865, 866, 867, 877, 878, 1028, 1027, 876, 875, 874, 873, 1025, 1024, 872, 871, 870, 869, 868, 1023, 1030, 1031, 1032, 1033, 1034, 1035, 1036, 1037, 1038, 1039, 1040, 1029, 1026, 856, 639, 638, 637, 636, 635, 634, 633, 853, 854, 855, 650, 651, 647, 649, 648, 640, 641, 642, 645, 646, 644, 673, 672, 674, 449, 450, 457, 451, 452, 453, 454, 455, 456, 713, 711, 710, 709, 708, 707, 706, 705, 704, 703, 702, 474, 473, 472, 471, 470, 469, 468, 476, 475, 484, 485, 488, 460, 461, 462, 463, 464, 465, 466, 467, 292, 293, 294, 295, 296, 297, 298, 459, 714, 715, 654, 677, 678, 680, 681, 682, 683, 684, 685, 686, 687, 688, 689, 733, 732, 731, 730, 729, 728, 727, 726, 724, 723, 722, 721, 720, 719, 718, 716, 717, 901, 902, 903, 904, 905, 906, 907, 908, 910, 911, 909, 912, 913, 914, 915, 916, 917, 918, 919, 920, 900, 921, 1044, 1125, 1124, 1123, 1122, 1130, 1147, 1149, 1150, 1151, 1152, 1153, 1148, 1154, 1155, 1156, 1157, 1158, 1159, 1160, 1146, 1145, 1046, 1045, 1144, 1143, 1142, 1141, 1140, 1139, 899, 922, 691, 692, 693, 695, 694, 696, 697, 698, 700, 699, 676, 675, 679, 701, 712, 483, 486, 487, 482, 481, 480, 479, 477, 478, 510, 509, 508, 507, 506, 505, 504, 503, 502, 501, 500, 499, 498, 497, 496, 495, 494, 493, 492, 491, 490, 489, 736, 737, 738, 739, 735, 740, 741, 742, 743, 744, 746, 511, 512, 514, 757, 755, 754, 753, 752, 751, 750, 748, 747, 923, 934, 940, 939, 938, 1161, 1162, 1163, 1164, 1165, 1166, 1167, 1168, 1169, 1179, 947, 937, 930, 933, 932, 931, 928, 927, 926, 925, 924, 935, 941, 942, 943, 944, 945, 948, 946, 936, 929, 756, 949, 749, 725, 734, 745, 317, 316, 315, 314, 306, 307, 313, 312, 304, 303, 305, 302, 300, 114, 115, 116, 117, 119, 118, 120, 121, 122, 123, 124, 125, 126, 127, 128, 129, 130, 155, 154, 153, 152, 151, 150, 146, 147, 148, 149, 145, 144, 308, 318, 319, 320, 321, 322, 323, 311, 310, 309, 513, 159, 158, 157, 156, 131, 132, 690, 301, 299, 112, 113, 291, 290, 289, 288, 287, 286, 285, 284, 141, 142, 143, 106, 105, 95, 94, 93, 92, 102, 103, 104, 96, 107, 97, 108, 109, 110, 283, 275, 276, 277, 278, 279, 280, 281, 282, 448, 447, 446, 445, 444, 443, 442, 441, 438, 437, 436, 435, 434, 433, 432, 660, 661, 662, 663, 664, 665, 667, 666, 668, 669, 670, 671, 458, 274, 273, 140, 272, 271, 270, 269, 268, 267, 266, 250, 249, 248, 247, 246, 253, 254, 261, 260, 259, 258, 257, 256, 255, 430, 429, 428, 427, 426, 425, 424, 423, 422, 421, 264, 265, 263, 262, 245, 139, 244, 243, 242, 241, 251, 240, 252, 239, 137, 66, 65, 55, 54, 53, 63, 62, 61, 51, 50, 49, 48, 47, 46, 58, 57, 45, 41, 43, 44, 214, 215, 216, 217, 218, 219, 220, 224, 225, 234, 233, 232, 226, 231, 230, 229, 228, 227, 213, 212, 371, 372, 390, 389, 388, 387, 386, 385, 384, 383, 235, 431, 399, 397, 396, 395, 398, 394, 420, 419, 418, 417, 416, 415, 414, 413, 412, 410, 408, 407, 406, 405, 404, 403, 402, 401, 400, 627, 626, 623, 624, 605, 606, 607, 608, 609, 610, 611, 612, 613, 614, 839, 838, 851, 1022, 1764, 1102, 1103, 1104, 1100, 1105, 1106, 1107, 1108, 1109, 1110, 1111, 1112, 1113, 1101, 1116, 1117, 1285, 1284, 1283, 1281, 1280, 1825, 1824, 1823, 1822, 1829, 1821, 1820, 1819, 1818, 1817, 1816, 1827, 1815, 1814, 1813, 1826, 1812, 1798, 1257, 1258, 1259, 1260, 1267, 1268, 1274, 1275, 1276, 1277, 1278, 1279, 1286, 1266, 1265, 1264, 1263, 1262, 1261, 1828, 1830, 1831, 1832, 1834, 1918, 1926, 1939, 1938, 1937, 1936, 1923, 1924, 1925, 1917, 1916, 1922, 1935, 1934, 1933, 1932, 1919, 1920, 1921, 2019, 2018, 2020, 2034, 2033, 2017, 2032, 2016, 2046, 2047, 2048, 2049, 2035, 2036, 2050, 2051, 2052, 2053, 2039, 2038, 2037, 2022, 2040, 2041, 2042, 2043, 2044, 2045, 2059, 2133, 2058, 2057, 2056, 2055, 2054, 2132, 2131, 2129, 2128, 2127, 2126, 1807, 1806, 1808, 2130, 2021, 1833, 1269, 1270, 1272, 1271, 1273, 1256, 632, 631, 615, 616, 617, 618, 619, 620, 621, 622, 604, 603, 393, 392, 391, 380, 379, 378, 377, 376, 375, 374, 373, 602, 601, 590, 589, 588, 578, 577, 576, 575, 798, 799, 800, 801, 802, 803, 804, 809, 808, 805, 806, 583, 582, 581, 580, 579, 586, 587, 597, 598, 599, 600, 595, 596, 594, 593, 592, 591, 585, 584, 807, 827, 826, 825, 824, 993, 992, 823, 991, 990, 989, 988, 994, 987, 986, 985, 984, 983, 982, 981, 980, 979, 978, 795, 794, 793, 792, 791, 790, 789, 968, 969, 970, 971, 972, 974, 973, 975, 976, 977, 1074, 1073, 1072, 1070, 1071, 1069, 1068, 1067, 964, 1055, 1054, 1053, 1050, 1052, 1051, 1049, 1048, 960, 961, 1047, 1058, 1059, 1060, 1061, 1056, 1057, 1062, 1063, 1064, 1199, 1197, 1196, 1195, 1194, 1193, 1192, 1191, 1190, 1180, 1181, 1385, 1386, 1182, 1183, 1387, 1184, 1185, 1186, 1390, 1389, 1383, 1375, 1374, 1373, 1371, 1370, 1369, 1368, 1367, 1365, 1364, 1363, 1454, 1451, 1452, 1453, 1455, 1456, 1457, 1458, 1459, 1450, 1449, 1448, 1447, 1446, 1445, 1444, 1443, 1562, 1555, 1554, 1553, 1552, 1543, 1542, 1544, 1545, 1551, 1546, 1547, 1548, 1549, 1550, 1563, 1577, 1578, 1579, 1580, 1581, 1582, 1584, 1585, 1583, 1586, 1576, 1566, 1567, 1568, 1569, 1570, 1571, 1572, 1573, 1574, 1609, 2274, 2275, 2276, 2267, 2266, 2265, 2260, 2264, 2263, 2268, 2262, 2261, 2269, 2270, 2271, 2272, 2273, 2283, 2282, 2281, 2289, 2288, 2287, 2279, 2280, 2290, 2291, 2292, 2284, 2285, 2293, 2294, 2341, 2342, 2343, 2338, 2277, 2305, 2304, 2303, 2295, 2302, 2309, 2310, 2301, 2300, 2299, 2296, 2297, 2298, 2314, 2315, 2318, 2316, 2317, 2313, 2311, 2312, 2308, 2307, 2306, 2327, 2326, 2325, 2320, 2321, 2322, 2323, 2324, 2319, 2348, 2347, 2345, 2344, 2346, 2349, 2351, 2352, 2353, 2389, 2350, 2413, 2546, 2612, 2686, 2704, 2711, 2712, 2713, 2715, 2848, 2709, 2819, 2820, 2821, 2826, 2822, 2823, 2824, 2825, 2829, 2828, 2827, 2986, 2987, 2988, 2989, 3017, 3019, 3016, 3015, 2985, 2984, 2981, 2983, 2980, 2982, 3013, 3014, 3018, 3035, 3034, 2782, 2783, 2784, 2815, 2816, 2834, 2835, 2836, 2837, 2838, 2818, 2839, 2840, 2841, 2842, 2844, 3000, 2999, 2998, 3009, 3028, 3029, 3031, 3030, 3011, 3010, 3012, 3037, 3032, 3036, 3027, 3026, 3007, 3006, 3005, 3004, 3003, 3002, 3001, 2992, 2993, 2994, 2995, 2996, 2997, 3008, 3024, 3025, 3023, 3022, 2991, 2990, 3020, 3021, 2832, 2833, 2831, 2830, 2806, 2787, 2807, 2817, 2808, 2809, 2810, 2811, 2812, 2813, 2791, 2792, 2779, 2778, 2777, 2776, 2775, 2774, 2789, 2788, 2773, 2772, 2771, 2756, 2755, 2257, 2757, 2758, 2759, 2760, 2761, 2762, 2763, 2764, 2768, 2767, 2766, 2765, 2790, 2843, 2258, 2144, 2143, 2142, 2220, 2219, 2218, 2217, 2216, 2215, 2214, 2231, 2232, 2233, 2234, 2235, 2236, 2254, 2253, 2237, 2238, 2239, 2255, 2141, 2095, 2096, 2094, 2093, 2092, 2091, 2090, 2211, 2140, 1958, 1847, 1846, 1845, 1844, 1843, 1842, 1838, 1836, 1837, 1282, 1300, 1297, 1849, 1850, 1848, 1851, 1862, 1115, 652, 653, 643, 655, 657, 658, 659, 656, 628, 629, 630, 409, 411, 440, 439, 625, 844, 850, 812, 813, 814, 815, 816, 821, 817, 818, 822, 797, 574, 573, 570, 552, 553, 569, 551, 550, 549, 548, 554, 555, 547, 546, 556, 542, 543, 544, 345, 344, 346, 347, 362, 361, 360, 359, 358, 357, 356, 367, 366, 365, 364, 355, 354, 353, 352, 351, 350, 349, 568, 567, 557, 566, 565, 563, 561, 558, 560, 559, 562, 564, 571, 572, 370, 369, 368, 209, 208, 207, 210, 211, 42, 40, 29, 28, 38, 39, 37, 36, 26, 27, 25, 24, 67, 34, 33, 32, 22, 21, 20, 30, 31, 23, 35, 222, 223, 221, 64, 52, 60, 59, 56, 68, 69, 70, 71, 72, 82, 81, 80, 79, 78, 138, 83, 73, 74, 84, 85, 75, 76, 77, 87, 86, 98, 99, 89, 88, 90, 111, 91, 101, 100, 238, 237, 236, 381, 382, 810, 811, 819, 796, 820, 786, 785, 784, 783, 782, 781, 780, 779, 778, 777, 539, 540, 541, 545, 532, 534, 759, 767, 951, 788, 787, 995, 996, 997, 998, 999, 1000, 1001, 1002, 1003, 1004, 1005, 1006, 1007, 1008, 1430, 1427, 1739, 1418, 1530, 1529, 1499, 1500, 1501, 1502, 1416, 1417, 1434, 1214, 1213, 1212, 1211, 1210, 1209, 1208, 1408, 1407, 1409, 1410, 1411, 1412, 1413, 1414, 1415, 1216, 1217, 1215, 1082, 1405, 1402, 1391, 1466, 1392, 1491, 1480, 1608, 1564, 1463, 1464, 1460, 1461, 1462, 1465, 1403, 1404, 1200, 1198, 1187, 1188, 1189, 1388, 1381, 1380, 1379, 1378, 1377, 1376, 1366, 1384, 1372, 1382, 1560, 1559, 1558, 1557, 1556, 1561, 1607, 1606, 1605, 1604, 1575, 1565, 2259, 2278, 2286, 2414, 1541, 163, 162, 160, 2023, 2134, 2135]
